Traveling Salesman Problem/TSP_generados/Aleatorio1620390856_5.tsp
NAME: Aleatorio1620390856_5.tsp
COMMENT: Randomly generated scenario
TYPE: TSP
DIMENSION: 5
EDGE_WEIGHT_TYPE: ATT
NODE_COORD_SECTION
1 43.96 26.76
2 22.05 31.67
3 37.75 14.19
4 35.52 43.46
5 37.02 14.08
