Traveling Salesman Problem/TSP_generados/Aleatorio1620390856_5.opt.tour
NAME: Aleatorio1620390856_5.opt.tour
COMMENT: Optimal solution for Aleatorio1620390856_5 (74.4689292218888)
TYPE: TOUR
DIMENSION: 5
TOUR_SECTION
1 3 5 2 4
-1
EOF
